words_hard_train/7708.qaiger
aag 93 24 0 1 69
2
4
8
16
22
24
36
44
48
58
66
70
80
88
92
102
110
114
124
132
136
146
154
158
186
6 3 4
10 7 8
12 2 5
14 10 13
18 14 16
20 15 17
26 22 24
28 26 3
30 21 28
32 19 31
34 13 5
38 35 36
40 34 37
42 39 41
46 43 44
50 46 48
52 32 51
54 47 49
56 53 55
60 41 58
62 40 59
64 61 63
68 65 66
72 68 70
74 57 73
76 69 71
78 75 77
82 63 80
84 62 81
86 83 85
90 87 88
94 90 92
96 79 95
98 91 93
100 97 99
104 85 102
106 84 103
108 105 107
112 109 110
116 112 114
118 101 117
120 113 115
122 119 121
126 107 124
128 106 125
130 127 129
134 131 132
138 134 136
140 123 139
142 135 137
144 141 143
148 129 147
150 128 146
152 149 151
156 152 154
160 157 159
162 145 161
164 156 158
166 163 165
168 17 93
170 168 158
172 49 137
174 71 115
176 172 174
178 176 25
180 170 178
182 167 180
184 166 181
186 183 185
i0 2 y1[0]
i1 2 y1[1]
i2 1 x2[1]
i3 1 x1[1]
i4 1 x2[0]
i5 1 x1[0]
i6 2 y1[2]
i7 1 x2[2]
i8 1 x1[2]
i9 2 y1[3]
i10 1 x2[3]
i11 1 x1[3]
i12 2 y1[4]
i13 1 x2[4]
i14 1 x1[4]
i15 2 y1[5]
i16 1 x2[5]
i17 1 x1[5]
i18 2 y1[6]
i19 1 x2[6]
i20 1 x1[6]
i21 2 y1[7]
i22 1 x2[7]
i23 1 x1[7]
o0 bv[0]
c
simplified
  >
    unary minus
      1 x1
    and
      1 x2
      subtract
        2 y1
        1
