words_hard_train/7708.qaiger.qdimacs
p cnf 93 208
a 33 66 35 4 68 8 11 12 44 46 77 79 22 55 24 57 0
e 1 2 3 5 6 7 9 10 13 14 15 16 17 18 19 20 21 23 25 26 27 28 29 30 31 32 34 36 37 38 39 40 41 42 43 45 47 48 49 50 51 52 53 54 56 58 59 60 61 62 63 64 65 67 69 70 71 72 73 74 75 76 78 80 81 82 83 84 85 86 87 88 89 90 91 92 93 0
1 -2 3 0
-1 -3 0
2 -3 0
3 -4 5 0
-3 -5 0
4 -5 0
-1 2 6 0
1 -6 0
-2 -6 0
-5 6 7 0
5 -7 0
-6 -7 0
-7 -8 9 0
7 -9 0
8 -9 0
7 8 10 0
-7 -10 0
-8 -10 0
-11 -12 13 0
11 -13 0
12 -13 0
-13 1 14 0
13 -14 0
-1 -14 0
10 -14 15 0
-10 -15 0
14 -15 0
9 15 16 0
-9 -16 0
-15 -16 0
6 2 17 0
-6 -17 0
-2 -17 0
17 -18 19 0
-17 -19 0
18 -19 0
-17 18 20 0
17 -20 0
-18 -20 0
19 20 21 0
-19 -21 0
-20 -21 0
21 -22 23 0
-21 -23 0
22 -23 0
-23 -24 25 0
23 -25 0
24 -25 0
-16 25 26 0
16 -26 0
-25 -26 0
23 24 27 0
-23 -27 0
-24 -27 0
26 27 28 0
-26 -28 0
-27 -28 0
20 -29 30 0
-20 -30 0
29 -30 0
-20 29 31 0
20 -31 0
-29 -31 0
30 31 32 0
-30 -32 0
-31 -32 0
32 -33 34 0
-32 -34 0
33 -34 0
-34 -35 36 0
34 -36 0
35 -36 0
28 36 37 0
-28 -37 0
-36 -37 0
34 35 38 0
-34 -38 0
-35 -38 0
37 38 39 0
-37 -39 0
-38 -39 0
31 -40 41 0
-31 -41 0
40 -41 0
-31 40 42 0
31 -42 0
-40 -42 0
41 42 43 0
-41 -43 0
-42 -43 0
43 -44 45 0
-43 -45 0
44 -45 0
-45 -46 47 0
45 -47 0
46 -47 0
39 47 48 0
-39 -48 0
-47 -48 0
45 46 49 0
-45 -49 0
-46 -49 0
48 49 50 0
-48 -50 0
-49 -50 0
42 -51 52 0
-42 -52 0
51 -52 0
-42 51 53 0
42 -53 0
-51 -53 0
52 53 54 0
-52 -54 0
-53 -54 0
54 -55 56 0
-54 -56 0
55 -56 0
-56 -57 58 0
56 -58 0
57 -58 0
50 58 59 0
-50 -59 0
-58 -59 0
56 57 60 0
-56 -60 0
-57 -60 0
59 60 61 0
-59 -61 0
-60 -61 0
53 -62 63 0
-53 -63 0
62 -63 0
-53 62 64 0
53 -64 0
-62 -64 0
63 64 65 0
-63 -65 0
-64 -65 0
65 -66 67 0
-65 -67 0
66 -67 0
-67 -68 69 0
67 -69 0
68 -69 0
61 69 70 0
-61 -70 0
-69 -70 0
67 68 71 0
-67 -71 0
-68 -71 0
70 71 72 0
-70 -72 0
-71 -72 0
64 73 74 0
-64 -74 0
-73 -74 0
-64 -73 75 0
64 -75 0
73 -75 0
74 75 76 0
-74 -76 0
-75 -76 0
-76 -77 78 0
76 -78 0
77 -78 0
78 79 80 0
-78 -80 0
-79 -80 0
72 80 81 0
-72 -81 0
-80 -81 0
-78 -79 82 0
78 -82 0
79 -82 0
81 82 83 0
-81 -83 0
-82 -83 0
8 46 84 0
-8 -84 0
-46 -84 0
-84 -79 85 0
84 -85 0
79 -85 0
24 68 86 0
-24 -86 0
-68 -86 0
35 57 87 0
-35 -87 0
-57 -87 0
-86 -87 88 0
86 -88 0
87 -88 0
-88 12 89 0
88 -89 0
-12 -89 0
-85 -89 90 0
85 -90 0
89 -90 0
83 -90 91 0
-83 -91 0
90 -91 0
-83 90 92 0
83 -92 0
-90 -92 0
91 92 93 0
-91 -93 0
-92 -93 0
93 0
